c *********************************
c * Circuit generated by BenCGen
c *
c * CarrySaveAdder_48_48_48_48_49
c *
c * Ports with 1 gate(s): 2
c * Ports with 2 gate(s): 241
c * Total gates: 243
c *********************************
p cnf 387 823
1 243 0
-1 -243 0
1 -242 0
243 -242 0
-1 -243 242 0
242 -193 0
-242 193 0
1 49 -244 0
-1 49 244 0
1 -49 244 0
-1 -49 -244 0
244 97 -145 0
-244 97 145 0
244 -97 145 0
-244 -97 -145 0
97 -245 0
244 -245 0
-97 -244 245 0
49 -246 0
1 -246 0
-49 -1 246 0
-245 194 0
-246 194 0
245 246 -194 0
2 50 -247 0
-2 50 247 0
2 -50 247 0
-2 -50 -247 0
247 98 -146 0
-247 98 146 0
247 -98 146 0
-247 -98 -146 0
98 -248 0
247 -248 0
-98 -247 248 0
50 -249 0
2 -249 0
-50 -2 249 0
-248 195 0
-249 195 0
248 249 -195 0
3 51 -250 0
-3 51 250 0
3 -51 250 0
-3 -51 -250 0
250 99 -147 0
-250 99 147 0
250 -99 147 0
-250 -99 -147 0
99 -251 0
250 -251 0
-99 -250 251 0
51 -252 0
3 -252 0
-51 -3 252 0
-251 196 0
-252 196 0
251 252 -196 0
4 52 -253 0
-4 52 253 0
4 -52 253 0
-4 -52 -253 0
253 100 -148 0
-253 100 148 0
253 -100 148 0
-253 -100 -148 0
100 -254 0
253 -254 0
-100 -253 254 0
52 -255 0
4 -255 0
-52 -4 255 0
-254 197 0
-255 197 0
254 255 -197 0
5 53 -256 0
-5 53 256 0
5 -53 256 0
-5 -53 -256 0
256 101 -149 0
-256 101 149 0
256 -101 149 0
-256 -101 -149 0
101 -257 0
256 -257 0
-101 -256 257 0
53 -258 0
5 -258 0
-53 -5 258 0
-257 198 0
-258 198 0
257 258 -198 0
6 54 -259 0
-6 54 259 0
6 -54 259 0
-6 -54 -259 0
259 102 -150 0
-259 102 150 0
259 -102 150 0
-259 -102 -150 0
102 -260 0
259 -260 0
-102 -259 260 0
54 -261 0
6 -261 0
-54 -6 261 0
-260 199 0
-261 199 0
260 261 -199 0
7 55 -262 0
-7 55 262 0
7 -55 262 0
-7 -55 -262 0
262 103 -151 0
-262 103 151 0
262 -103 151 0
-262 -103 -151 0
103 -263 0
262 -263 0
-103 -262 263 0
55 -264 0
7 -264 0
-55 -7 264 0
-263 200 0
-264 200 0
263 264 -200 0
8 56 -265 0
-8 56 265 0
8 -56 265 0
-8 -56 -265 0
265 104 -152 0
-265 104 152 0
265 -104 152 0
-265 -104 -152 0
104 -266 0
265 -266 0
-104 -265 266 0
56 -267 0
8 -267 0
-56 -8 267 0
-266 201 0
-267 201 0
266 267 -201 0
9 57 -268 0
-9 57 268 0
9 -57 268 0
-9 -57 -268 0
268 105 -153 0
-268 105 153 0
268 -105 153 0
-268 -105 -153 0
105 -269 0
268 -269 0
-105 -268 269 0
57 -270 0
9 -270 0
-57 -9 270 0
-269 202 0
-270 202 0
269 270 -202 0
10 58 -271 0
-10 58 271 0
10 -58 271 0
-10 -58 -271 0
271 106 -154 0
-271 106 154 0
271 -106 154 0
-271 -106 -154 0
106 -272 0
271 -272 0
-106 -271 272 0
58 -273 0
10 -273 0
-58 -10 273 0
-272 203 0
-273 203 0
272 273 -203 0
11 59 -274 0
-11 59 274 0
11 -59 274 0
-11 -59 -274 0
274 107 -155 0
-274 107 155 0
274 -107 155 0
-274 -107 -155 0
107 -275 0
274 -275 0
-107 -274 275 0
59 -276 0
11 -276 0
-59 -11 276 0
-275 204 0
-276 204 0
275 276 -204 0
12 60 -277 0
-12 60 277 0
12 -60 277 0
-12 -60 -277 0
277 108 -156 0
-277 108 156 0
277 -108 156 0
-277 -108 -156 0
108 -278 0
277 -278 0
-108 -277 278 0
60 -279 0
12 -279 0
-60 -12 279 0
-278 205 0
-279 205 0
278 279 -205 0
13 61 -280 0
-13 61 280 0
13 -61 280 0
-13 -61 -280 0
280 109 -157 0
-280 109 157 0
280 -109 157 0
-280 -109 -157 0
109 -281 0
280 -281 0
-109 -280 281 0
61 -282 0
13 -282 0
-61 -13 282 0
-281 206 0
-282 206 0
281 282 -206 0
14 62 -283 0
-14 62 283 0
14 -62 283 0
-14 -62 -283 0
283 110 -158 0
-283 110 158 0
283 -110 158 0
-283 -110 -158 0
110 -284 0
283 -284 0
-110 -283 284 0
62 -285 0
14 -285 0
-62 -14 285 0
-284 207 0
-285 207 0
284 285 -207 0
15 63 -286 0
-15 63 286 0
15 -63 286 0
-15 -63 -286 0
286 111 -159 0
-286 111 159 0
286 -111 159 0
-286 -111 -159 0
111 -287 0
286 -287 0
-111 -286 287 0
63 -288 0
15 -288 0
-63 -15 288 0
-287 208 0
-288 208 0
287 288 -208 0
16 64 -289 0
-16 64 289 0
16 -64 289 0
-16 -64 -289 0
289 112 -160 0
-289 112 160 0
289 -112 160 0
-289 -112 -160 0
112 -290 0
289 -290 0
-112 -289 290 0
64 -291 0
16 -291 0
-64 -16 291 0
-290 209 0
-291 209 0
290 291 -209 0
17 65 -292 0
-17 65 292 0
17 -65 292 0
-17 -65 -292 0
292 113 -161 0
-292 113 161 0
292 -113 161 0
-292 -113 -161 0
113 -293 0
292 -293 0
-113 -292 293 0
65 -294 0
17 -294 0
-65 -17 294 0
-293 210 0
-294 210 0
293 294 -210 0
18 66 -295 0
-18 66 295 0
18 -66 295 0
-18 -66 -295 0
295 114 -162 0
-295 114 162 0
295 -114 162 0
-295 -114 -162 0
114 -296 0
295 -296 0
-114 -295 296 0
66 -297 0
18 -297 0
-66 -18 297 0
-296 211 0
-297 211 0
296 297 -211 0
19 67 -298 0
-19 67 298 0
19 -67 298 0
-19 -67 -298 0
298 115 -163 0
-298 115 163 0
298 -115 163 0
-298 -115 -163 0
115 -299 0
298 -299 0
-115 -298 299 0
67 -300 0
19 -300 0
-67 -19 300 0
-299 212 0
-300 212 0
299 300 -212 0
20 68 -301 0
-20 68 301 0
20 -68 301 0
-20 -68 -301 0
301 116 -164 0
-301 116 164 0
301 -116 164 0
-301 -116 -164 0
116 -302 0
301 -302 0
-116 -301 302 0
68 -303 0
20 -303 0
-68 -20 303 0
-302 213 0
-303 213 0
302 303 -213 0
21 69 -304 0
-21 69 304 0
21 -69 304 0
-21 -69 -304 0
304 117 -165 0
-304 117 165 0
304 -117 165 0
-304 -117 -165 0
117 -305 0
304 -305 0
-117 -304 305 0
69 -306 0
21 -306 0
-69 -21 306 0
-305 214 0
-306 214 0
305 306 -214 0
22 70 -307 0
-22 70 307 0
22 -70 307 0
-22 -70 -307 0
307 118 -166 0
-307 118 166 0
307 -118 166 0
-307 -118 -166 0
118 -308 0
307 -308 0
-118 -307 308 0
70 -309 0
22 -309 0
-70 -22 309 0
-308 215 0
-309 215 0
308 309 -215 0
23 71 -310 0
-23 71 310 0
23 -71 310 0
-23 -71 -310 0
310 119 -167 0
-310 119 167 0
310 -119 167 0
-310 -119 -167 0
119 -311 0
310 -311 0
-119 -310 311 0
71 -312 0
23 -312 0
-71 -23 312 0
-311 216 0
-312 216 0
311 312 -216 0
24 72 -313 0
-24 72 313 0
24 -72 313 0
-24 -72 -313 0
313 120 -168 0
-313 120 168 0
313 -120 168 0
-313 -120 -168 0
120 -314 0
313 -314 0
-120 -313 314 0
72 -315 0
24 -315 0
-72 -24 315 0
-314 217 0
-315 217 0
314 315 -217 0
25 73 -316 0
-25 73 316 0
25 -73 316 0
-25 -73 -316 0
316 121 -169 0
-316 121 169 0
316 -121 169 0
-316 -121 -169 0
121 -317 0
316 -317 0
-121 -316 317 0
73 -318 0
25 -318 0
-73 -25 318 0
-317 218 0
-318 218 0
317 318 -218 0
26 74 -319 0
-26 74 319 0
26 -74 319 0
-26 -74 -319 0
319 122 -170 0
-319 122 170 0
319 -122 170 0
-319 -122 -170 0
122 -320 0
319 -320 0
-122 -319 320 0
74 -321 0
26 -321 0
-74 -26 321 0
-320 219 0
-321 219 0
320 321 -219 0
27 75 -322 0
-27 75 322 0
27 -75 322 0
-27 -75 -322 0
322 123 -171 0
-322 123 171 0
322 -123 171 0
-322 -123 -171 0
123 -323 0
322 -323 0
-123 -322 323 0
75 -324 0
27 -324 0
-75 -27 324 0
-323 220 0
-324 220 0
323 324 -220 0
28 76 -325 0
-28 76 325 0
28 -76 325 0
-28 -76 -325 0
325 124 -172 0
-325 124 172 0
325 -124 172 0
-325 -124 -172 0
124 -326 0
325 -326 0
-124 -325 326 0
76 -327 0
28 -327 0
-76 -28 327 0
-326 221 0
-327 221 0
326 327 -221 0
29 77 -328 0
-29 77 328 0
29 -77 328 0
-29 -77 -328 0
328 125 -173 0
-328 125 173 0
328 -125 173 0
-328 -125 -173 0
125 -329 0
328 -329 0
-125 -328 329 0
77 -330 0
29 -330 0
-77 -29 330 0
-329 222 0
-330 222 0
329 330 -222 0
30 78 -331 0
-30 78 331 0
30 -78 331 0
-30 -78 -331 0
331 126 -174 0
-331 126 174 0
331 -126 174 0
-331 -126 -174 0
126 -332 0
331 -332 0
-126 -331 332 0
78 -333 0
30 -333 0
-78 -30 333 0
-332 223 0
-333 223 0
332 333 -223 0
31 79 -334 0
-31 79 334 0
31 -79 334 0
-31 -79 -334 0
334 127 -175 0
-334 127 175 0
334 -127 175 0
-334 -127 -175 0
127 -335 0
334 -335 0
-127 -334 335 0
79 -336 0
31 -336 0
-79 -31 336 0
-335 224 0
-336 224 0
335 336 -224 0
32 80 -337 0
-32 80 337 0
32 -80 337 0
-32 -80 -337 0
337 128 -176 0
-337 128 176 0
337 -128 176 0
-337 -128 -176 0
128 -338 0
337 -338 0
-128 -337 338 0
80 -339 0
32 -339 0
-80 -32 339 0
-338 225 0
-339 225 0
338 339 -225 0
33 81 -340 0
-33 81 340 0
33 -81 340 0
-33 -81 -340 0
340 129 -177 0
-340 129 177 0
340 -129 177 0
-340 -129 -177 0
129 -341 0
340 -341 0
-129 -340 341 0
81 -342 0
33 -342 0
-81 -33 342 0
-341 226 0
-342 226 0
341 342 -226 0
34 82 -343 0
-34 82 343 0
34 -82 343 0
-34 -82 -343 0
343 130 -178 0
-343 130 178 0
343 -130 178 0
-343 -130 -178 0
130 -344 0
343 -344 0
-130 -343 344 0
82 -345 0
34 -345 0
-82 -34 345 0
-344 227 0
-345 227 0
344 345 -227 0
35 83 -346 0
-35 83 346 0
35 -83 346 0
-35 -83 -346 0
346 131 -179 0
-346 131 179 0
346 -131 179 0
-346 -131 -179 0
131 -347 0
346 -347 0
-131 -346 347 0
83 -348 0
35 -348 0
-83 -35 348 0
-347 228 0
-348 228 0
347 348 -228 0
36 84 -349 0
-36 84 349 0
36 -84 349 0
-36 -84 -349 0
349 132 -180 0
-349 132 180 0
349 -132 180 0
-349 -132 -180 0
132 -350 0
349 -350 0
-132 -349 350 0
84 -351 0
36 -351 0
-84 -36 351 0
-350 229 0
-351 229 0
350 351 -229 0
37 85 -352 0
-37 85 352 0
37 -85 352 0
-37 -85 -352 0
352 133 -181 0
-352 133 181 0
352 -133 181 0
-352 -133 -181 0
133 -353 0
352 -353 0
-133 -352 353 0
85 -354 0
37 -354 0
-85 -37 354 0
-353 230 0
-354 230 0
353 354 -230 0
38 86 -355 0
-38 86 355 0
38 -86 355 0
-38 -86 -355 0
355 134 -182 0
-355 134 182 0
355 -134 182 0
-355 -134 -182 0
134 -356 0
355 -356 0
-134 -355 356 0
86 -357 0
38 -357 0
-86 -38 357 0
-356 231 0
-357 231 0
356 357 -231 0
39 87 -358 0
-39 87 358 0
39 -87 358 0
-39 -87 -358 0
358 135 -183 0
-358 135 183 0
358 -135 183 0
-358 -135 -183 0
135 -359 0
358 -359 0
-135 -358 359 0
87 -360 0
39 -360 0
-87 -39 360 0
-359 232 0
-360 232 0
359 360 -232 0
40 88 -361 0
-40 88 361 0
40 -88 361 0
-40 -88 -361 0
361 136 -184 0
-361 136 184 0
361 -136 184 0
-361 -136 -184 0
136 -362 0
361 -362 0
-136 -361 362 0
88 -363 0
40 -363 0
-88 -40 363 0
-362 233 0
-363 233 0
362 363 -233 0
41 89 -364 0
-41 89 364 0
41 -89 364 0
-41 -89 -364 0
364 137 -185 0
-364 137 185 0
364 -137 185 0
-364 -137 -185 0
137 -365 0
364 -365 0
-137 -364 365 0
89 -366 0
41 -366 0
-89 -41 366 0
-365 234 0
-366 234 0
365 366 -234 0
42 90 -367 0
-42 90 367 0
42 -90 367 0
-42 -90 -367 0
367 138 -186 0
-367 138 186 0
367 -138 186 0
-367 -138 -186 0
138 -368 0
367 -368 0
-138 -367 368 0
90 -369 0
42 -369 0
-90 -42 369 0
-368 235 0
-369 235 0
368 369 -235 0
43 91 -370 0
-43 91 370 0
43 -91 370 0
-43 -91 -370 0
370 139 -187 0
-370 139 187 0
370 -139 187 0
-370 -139 -187 0
139 -371 0
370 -371 0
-139 -370 371 0
91 -372 0
43 -372 0
-91 -43 372 0
-371 236 0
-372 236 0
371 372 -236 0
44 92 -373 0
-44 92 373 0
44 -92 373 0
-44 -92 -373 0
373 140 -188 0
-373 140 188 0
373 -140 188 0
-373 -140 -188 0
140 -374 0
373 -374 0
-140 -373 374 0
92 -375 0
44 -375 0
-92 -44 375 0
-374 237 0
-375 237 0
374 375 -237 0
45 93 -376 0
-45 93 376 0
45 -93 376 0
-45 -93 -376 0
376 141 -189 0
-376 141 189 0
376 -141 189 0
-376 -141 -189 0
141 -377 0
376 -377 0
-141 -376 377 0
93 -378 0
45 -378 0
-93 -45 378 0
-377 238 0
-378 238 0
377 378 -238 0
46 94 -379 0
-46 94 379 0
46 -94 379 0
-46 -94 -379 0
379 142 -190 0
-379 142 190 0
379 -142 190 0
-379 -142 -190 0
142 -380 0
379 -380 0
-142 -379 380 0
94 -381 0
46 -381 0
-94 -46 381 0
-380 239 0
-381 239 0
380 381 -239 0
47 95 -382 0
-47 95 382 0
47 -95 382 0
-47 -95 -382 0
382 143 -191 0
-382 143 191 0
382 -143 191 0
-382 -143 -191 0
143 -383 0
382 -383 0
-143 -382 383 0
95 -384 0
47 -384 0
-95 -47 384 0
-383 240 0
-384 240 0
383 384 -240 0
48 96 -385 0
-48 96 385 0
48 -96 385 0
-48 -96 -385 0
385 144 -192 0
-385 144 192 0
385 -144 192 0
-385 -144 -192 0
144 -386 0
385 -386 0
-144 -385 386 0
96 -387 0
48 -387 0
-96 -48 387 0
-386 241 0
-387 241 0
386 387 -241 0
